# Objective value = 2.7223300000000004e+03
I_0_0 781
I_0_1 895
I_0_2 1165
I_0_3 1.0349999999999998e+03
I_0_4 9.2399999999999977e+02
I_0_5 9.0799999999999966e+02
I_0_6 1.1779999999999995e+03
I_1_0 62
I_1_1 31
I_1_2 0
I_1_3 62
I_1_4 3.0999999999999893e+01
I_1_5 62
I_1_6 3.0999999999999982e+01
I_2_0 166
I_2_1 83
I_2_2 -2.8421709430404007e-14
I_2_3 1.6599999999999997e+02
I_2_4 8.2999999999999972e+01
I_2_5 166
I_2_6 83
I_3_0 100
I_3_1 100
I_3_2 50
I_3_3 -8.8817841970012523e-16
I_3_4 100
I_3_5 50
I_3_6 0
I_4_0 154
I_4_1 154
I_4_2 77
I_4_3 0
I_4_4 154
I_4_5 77
I_4_6 0
I_5_0 29
I_5_1 29
I_5_2 0
I_5_3 29
I_5_4 0
I_5_5 29
I_5_6 0
q_1_0 0
q_1_1 0
q_1_2 93
q_1_3 0
q_1_4 6.2000000000000107e+01
q_1_5 0
q_2_0 0
q_2_1 0
q_2_2 249
q_2_3 0
q_2_4 1.6600000000000003e+02
q_2_5 0
q_3_0 50
q_3_1 0
q_3_2 0
q_3_3 1.5000000000000003e+02
q_3_4 0
q_3_5 0
q_4_0 77
q_4_1 0
q_4_2 0
q_4_3 231
q_4_4 0
q_4_5 0
q_5_0 29
q_5_1 0
q_5_2 58
q_5_3 0
q_5_4 58
q_5_5 0
y_0_0 1
y_0_1 0
y_0_2 1
y_0_3 1
y_0_4 1
y_0_5 0
y_1_0 0
y_1_1 0
y_1_2 1
y_1_3 0
y_1_4 1
y_1_5 0
y_2_0 0
y_2_1 0
y_2_2 1
y_2_3 0
y_2_4 1
y_2_5 0
y_3_0 1
y_3_1 0
y_3_2 1.0408340855860843e-17
y_3_3 1
y_3_4 0
y_3_5 0
y_4_0 1
y_4_1 0
y_4_2 1.7347234759768071e-18
y_4_3 1
y_4_4 0
y_4_5 0
y_5_0 1
y_5_1 0
y_5_2 1
y_5_3 0
y_5_4 1
y_5_5 0
x_0_1_0 0
x_0_1_1 0
x_0_1_2 9.9999999999999989e-01
x_0_1_3 0
x_0_1_4 1
x_0_1_5 0
x_0_2_0 0
x_0_2_1 0
x_0_2_2 0
x_0_2_3 0
x_0_2_4 0
x_0_2_5 0
x_0_3_0 1
x_0_3_1 0
x_0_3_2 2.0816681711721685e-17
x_0_3_3 1
x_0_3_4 0
x_0_3_5 0
x_0_4_0 0
x_0_4_1 0
x_0_4_2 0
x_0_4_3 1
x_0_4_4 0
x_0_4_5 0
x_0_5_0 1.0000000000000002e+00
x_0_5_1 0
x_0_5_2 1
x_0_5_3 0
x_0_5_4 1
x_0_5_5 0
x_1_2_0 0
x_1_2_1 0
x_1_2_2 1
x_1_2_3 0
x_1_2_4 1
x_1_2_5 0
x_1_3_0 0
x_1_3_1 0
x_1_3_2 0
x_1_3_3 0
x_1_3_4 0
x_1_3_5 0
x_1_4_0 0
x_1_4_1 0
x_1_4_2 0
x_1_4_3 0
x_1_4_4 0
x_1_4_5 0
x_1_5_0 0
x_1_5_1 0
x_1_5_2 1.9081958235744878e-16
x_1_5_3 0
x_1_5_4 0
x_1_5_5 0
x_2_3_0 0
x_2_3_1 0
x_2_3_2 0
x_2_3_3 0
x_2_3_4 0
x_2_3_5 0
x_2_4_0 0
x_2_4_1 0
x_2_4_2 1.7347234759768071e-18
x_2_4_3 0
x_2_4_4 0
x_2_4_5 0
x_2_5_0 0
x_2_5_1 0
x_2_5_2 9.9999999999999989e-01
x_2_5_3 0
x_2_5_4 1
x_2_5_5 0
x_3_4_0 1
x_3_4_1 0
x_3_4_2 0
x_3_4_3 1
x_3_4_4 0
x_3_4_5 0
x_3_5_0 0
x_3_5_1 0
x_3_5_2 0
x_3_5_3 0
x_3_5_4 0
x_3_5_5 0
x_4_5_0 9.9999999999999989e-01
x_4_5_1 0
x_4_5_2 1.7347234759768071e-18
x_4_5_3 0
x_4_5_4 0
x_4_5_5 0
